NAME : 10_3_3_3_(13).dat
COMMENT : Henke, Speranza, Wäscher, 2015
TYPE : MCVRP
DIMENSION : 11
EDGE_WEIGHT_TYPE : DISTANCE_MATRIX
CAPACITY : 1000
VEHICLES : 3
PRODUCT TYPES : 3
COMPARTMENTS : 3
NODE_COORD_SECTION
1 50 50
2 9.04 3.01
3 90.44 82.97
4 28.61 44.19
5 37.06 18.38
6 88.45 86.52
7 29.17 1.39
8 83.76 49.5
9 47.79 55.69
10 13.41 24.51
11 50.73 81.92
DEMAND_SECTION
1 0 0 0
2 162 56 8
3 71 19 53
4 93 45 5
5 148 25 1
6 160 54 32
7 62 70 67
8 71 58 38
9 20 50 64
10 27 60 3
11 30 70 67
DEPOT_SECTION
1
EOF